array [1..9] of var 1..3: x :: output_array([1..3, 1..3]);
array [1..9] of var 1..3: y :: output_array([1..3, 1..3]);
var 1..3: z;
constraint all_different_int([x[1], x[2], x[3]]);
constraint all_different_int([x[4], x[5], x[6]]);
constraint all_different_int([x[7], x[8], x[9]]);
constraint all_different_int([y[1], y[4], y[7]]);
constraint all_different_int([y[2], y[5], y[8]]);
constraint all_different_int([y[3], y[6], y[9]]);
solve satisfy;
